# Solution for model GasLib-40
# Objective value = 3.2853958470804855e+01
loadshed[innode_1] 0
loadshed[innode_2] 0
loadshed[innode_3] 0
loadshed[innode_4] 0
loadshed[innode_5] 0
loadshed[innode_6] 0
loadshed[innode_7] 0
loadshed[innode_8] 0
loadshed[source_1] -9.9702170783064537e-02
loadshed[source_2] 6.0235755540919644e-02
loadshed[source_3] 2.4728411872534661e-01
loadshed[sink_1] 0
loadshed[sink_2] 0
loadshed[sink_3] 0
loadshed[sink_4] 0
loadshed[sink_5] 0
loadshed[sink_6] 0
loadshed[sink_7] 0
loadshed[sink_8] 8.6114072806665554e-01
loadshed[sink_9] 0
loadshed[sink_10] 0
loadshed[sink_11] 0
loadshed[sink_12] 1
loadshed[sink_13] 0
loadshed[sink_14] 0
loadshed[sink_15] 0
loadshed[sink_16] 0
loadshed[sink_17] 0
loadshed[sink_18] 0
loadshed[sink_19] 0
loadshed[sink_20] 0
loadshed[sink_21] 1.4776373893797251e-01
loadshed[sink_22] 0
loadshed[sink_23] 0
loadshed[sink_24] 0
loadshed[sink_25] 0
loadshed[sink_26] 0
loadshed[sink_27] 0
loadshed[sink_28] 0
loadshed[sink_29] 0
flow[source_1,sink_3] 1.7385222165191988e+02
flow[innode_1,sink_16] 1.6354166666666970e+01
flow[innode_6,sink_13] -4.5178960917877706e+00
flow[sink_13,sink_14] -2.0872062758454440e+01
flow[sink_14,sink_10] -3.7226229425121105e+01
flow[sink_25,sink_26] 2.1245854152919571e+02
flow[sink_26,sink_9] 1.9610437486252894e+02
flow[sink_9,sink_18] 1.7975020819586229e+02
flow[sink_26,sink_4] 0
flow[sink_4,sink_20] 1.8625094343076572e+01
flow[sink_18,sink_6] 1.6339604152919563e+02
flow[sink_25,innode_8] -1.4114388831858352e+02
flow[sink_6,sink_7] 1.1433354152919537e+02
flow[sink_6,sink_22] 3.2708333333333641e+01
flow[sink_7,sink_24] 3.0291780519451898e+01
flow[sink_22,sink_1] 1.6354166666666970e+01
flow[sink_24,sink_21] 1.3937613852785242e+01
flow[sink_21,sink_12] 0
flow[sink_7,sink_5] 6.7687594343076583e+01
flow[sink_5,sink_17] 5.1333427676409912e+01
flow[sink_17,sink_4] 3.4979261009743240e+01
flow[sink_17,sink_8] 0
flow[sink_3,sink_23] 16.3541666666697
flow[sink_8,sink_20] -2.2709276764099044e+00
flow[sink_25,sink_20] 0
flow[sink_25,sink_15] -8.3150923785491557e+01
flow[sink_15,sink_29] -5.6305925055027522e+01
flow[sink_29,sink_28] 1.6354166666667879e+01
flow[sink_29,sink_2] 5.9553332063797377e+01
flow[sink_2,sink_15] 4.3199165397130713e+01
flow[sink_29,innode_7] -1.4856759045215946e+02
flow[innode_4,sink_19] 4.6120033549961455e+01
flow[sink_19,innode_3] 4.2108535734931117e+01
flow[innode_4,innode_5] 72.8770292084933
flow[sink_27,innode_5] -72.8770292084933
flow[sink_27,sink_19] 5.6522862541826633e+01
flow[sink_10,sink_11] 3.2708333333333641e+01
flow[sink_10,innode_2] -4.4180193690190229e+01
flow[sink_10,innode_3] -4.2108535734931117e+01
flow[innode_6,sink_25] 4.5178960917877706e+00
flow[sink_11,innode_1] 1.6354166666666970e+01
flow[sink_19,innode_2] 4.4180193690190229e+01
flow[source_3,innode_4] 1.1899706275845475e+02
flow[source_2,innode_7] 1.4856759045215946e+02
flow[sink_3,innode_8] 1.4114388831858352e+02
pressure[innode_1] 7.6658002912069591e+01
pressure[innode_2] 79.1448099263758
pressure[innode_3] 7.9051565342265235e+01
pressure[innode_4] 81.01325
pressure[innode_5] 8.0963121336492748e+01
pressure[innode_6] 7.4986697098569692e+01
pressure[innode_7] 81.01325
pressure[innode_8] 8.0432128436973542e+01
pressure[source_1] 81.01325
pressure[source_2] 81.01325
pressure[source_3] 81.01325
pressure[sink_1] 3.5317877128218278e+01
pressure[sink_2] 7.5531095857083940e+01
pressure[sink_3] 8.0432128436973542e+01
pressure[sink_4] 2.5379252453446295e+00
pressure[sink_5] 7.6986865738091161e+00
pressure[sink_6] 3.7418954738605649e+01
pressure[sink_7] 3.5849427743325045e+01
pressure[sink_8] 1.0132499999999995e+00
pressure[sink_9] 4.8286013821669243e+01
pressure[sink_10] 7.6809704219673137e+01
pressure[sink_11] 7.6658002912069591e+01
pressure[sink_12] 1.01325
pressure[sink_13] 7.5011603504713150e+01
pressure[sink_14] 7.5048955838926034e+01
pressure[sink_15] 7.5390060103005013e+01
pressure[sink_16] 7.5636353077251911e+01
pressure[sink_17] 3.87471726058917
pressure[sink_18] 4.1782115541384222e+01
pressure[sink_19] 79.1448099263758
pressure[sink_20] 1.1715017223743407e+00
pressure[sink_21] 1.01325
pressure[sink_22] 3.6381646270573285e+01
pressure[sink_23] 8.0267410425313756e+01
pressure[sink_24] 1.1675961238319292e+00
pressure[sink_25] 7.4986697098569692e+01
pressure[sink_26] 6.0023366788650655e+01
pressure[sink_27] 80.3583766563328
pressure[sink_28] 7.6744366694654474e+01
pressure[sink_29] 7.7039648968271649e+01
interdiction[source_1,sink_3] 0
interdiction[innode_1,sink_16] 0
interdiction[innode_6,sink_13] 0
interdiction[sink_13,sink_14] 0
interdiction[sink_14,sink_10] 0
interdiction[sink_25,sink_26] 0
interdiction[sink_26,sink_9] 0
interdiction[sink_9,sink_18] 0
interdiction[sink_26,sink_4] 1
interdiction[sink_4,sink_20] 0
interdiction[sink_18,sink_6] 0
interdiction[sink_25,innode_8] 0
interdiction[sink_6,sink_7] 0
interdiction[sink_6,sink_22] 0
interdiction[sink_7,sink_24] 0
interdiction[sink_22,sink_1] 0
interdiction[sink_24,sink_21] 0
interdiction[sink_21,sink_12] 0
interdiction[sink_7,sink_5] 0
interdiction[sink_5,sink_17] 0
interdiction[sink_17,sink_4] 0
interdiction[sink_17,sink_8] 1
interdiction[sink_3,sink_23] 0
interdiction[sink_8,sink_20] 0
interdiction[sink_25,sink_20] 1
interdiction[sink_25,sink_15] 0
interdiction[sink_15,sink_29] 0
interdiction[sink_29,sink_28] 0
interdiction[sink_29,sink_2] 0
interdiction[sink_2,sink_15] 0
interdiction[sink_29,innode_7] 0
interdiction[innode_4,sink_19] 0
interdiction[sink_19,innode_3] 0
interdiction[innode_4,innode_5] 0
interdiction[sink_27,innode_5] 0
interdiction[sink_27,sink_19] 0
interdiction[sink_10,sink_11] 0
interdiction[sink_10,innode_2] 0
interdiction[sink_10,innode_3] 0
interdiction[innode_6,sink_25] 0
interdiction[sink_11,innode_1] 0
interdiction[sink_19,innode_2] 0
interdiction[source_3,innode_4] 0
interdiction[source_2,innode_7] 0
interdiction[sink_3,innode_8] 0
WCcheckFlow[source_1,sink_3] 39
WCcheckFlow[innode_1,sink_16] 1
WCcheckFlow[innode_6,sink_13] 13
WCcheckFlow[sink_13,sink_14] 12
WCcheckFlow[sink_14,sink_10] 11
WCcheckFlow[sink_25,sink_26] 15
WCcheckFlow[sink_26,sink_9] 14
WCcheckFlow[sink_9,sink_18] 13
WCcheckFlow[sink_26,sink_4] 0
WCcheckFlow[sink_4,sink_20] 2
WCcheckFlow[sink_18,sink_6] 12
WCcheckFlow[sink_25,innode_8] -36
WCcheckFlow[sink_6,sink_7] 9
WCcheckFlow[sink_6,sink_22] 2
WCcheckFlow[sink_7,sink_24] 3
WCcheckFlow[sink_22,sink_1] 1
WCcheckFlow[sink_24,sink_21] 2
WCcheckFlow[sink_21,sink_12] 1
WCcheckFlow[sink_7,sink_5] 5
WCcheckFlow[sink_5,sink_17] 4
WCcheckFlow[sink_17,sink_4] 3
WCcheckFlow[sink_17,sink_8] 0
WCcheckFlow[sink_3,sink_23] 1
WCcheckFlow[sink_8,sink_20] -1
WCcheckFlow[sink_25,sink_20] 0
WCcheckFlow[sink_25,sink_15] 6
WCcheckFlow[sink_15,sink_29] 5
WCcheckFlow[sink_29,sink_28] 1
WCcheckFlow[sink_29,sink_2] 1
WCcheckFlow[sink_2,sink_15] 0
WCcheckFlow[sink_29,innode_7] 2
WCcheckFlow[innode_4,sink_19] -4
WCcheckFlow[sink_19,innode_3] -5
WCcheckFlow[innode_4,innode_5] 2
WCcheckFlow[sink_27,innode_5] -1
WCcheckFlow[sink_27,sink_19] 0
WCcheckFlow[sink_10,sink_11] 3
WCcheckFlow[sink_10,innode_2] 1
WCcheckFlow[sink_10,innode_3] 6
WCcheckFlow[innode_6,sink_25] -14
WCcheckFlow[sink_11,innode_1] 2
WCcheckFlow[sink_19,innode_2] 0
WCcheckFlow[source_3,innode_4] -1
WCcheckFlow[source_2,innode_7] -1
WCcheckFlow[sink_3,innode_8] 37
